
Welcome to IBM(R) ILOG(R) CPLEX(R) Interactive Optimizer 22.1.1.0
  with Simplex, Mixed Integer & Barrier Optimizers
5725-A06 5725-A29 5724-Y48 5724-Y49 5724-Y54 5724-Y55 5655-Y21
Copyright IBM Corp. 1988, 2022.  All Rights Reserved.

Type 'help' for a list of available commands.
Type 'help' followed by a command name for more
information on commands.

CPLEX> Selected objective sense:  MINIMIZE
Selected objective  name:  00000000
Selected RHS        name:  RHS1
Selected bound      name:  BOUND
Problem 'ee.mps' read.
Read time = 0.03 sec. (3.17 ticks)
CPLEX> New value for time limit in seconds: 7200
CPLEX> New value for parallel optimization mode: -1
CPLEX> New value for default parallel thread count: 40
CPLEX> New value for mixed integer optimality gap tolerance: 1e-13
CPLEX> Version identifier: 22.1.1.0 | 2022-11-28 | 9160aff4d
CPXPARAM_Threads                                 40
CPXPARAM_Parallel                                -1
CPXPARAM_TimeLimit                               7200
CPXPARAM_MIP_Tolerances_MIPGap                   1e-13
Found incumbent of value 0.000000 after 0.00 sec. (0.31 ticks)
Tried aggregator 2 times.
MIP Presolve eliminated 520 rows and 3608 columns.
MIP Presolve modified 5892 coefficients.
Aggregator did 785 substitutions.
Reduced MIP has 3227 rows, 6911 columns, and 25414 nonzeros.
Reduced MIP has 6911 binaries, 0 generals, 0 SOSs, and 0 indicators.
Presolve time = 0.06 sec. (67.77 ticks)
Probing time = 0.03 sec. (5.16 ticks)
Tried aggregator 1 time.
Detecting symmetries...
Reduced MIP has 3227 rows, 6911 columns, and 25414 nonzeros.
Reduced MIP has 6911 binaries, 0 generals, 0 SOSs, and 0 indicators.
Presolve time = 0.03 sec. (19.34 ticks)
Probing time = 0.02 sec. (4.99 ticks)
Clique table members: 16525.
MIP emphasis: balance optimality and feasibility.
MIP search method: dynamic search.
Parallel mode: opportunistic, using up to 40 threads.
Root relaxation solution time = 0.09 sec. (73.23 ticks)

        Nodes                                         Cuts/
   Node  Left     Objective  IInf  Best Integer    Best Bound    ItCnt     Gap

*     0+    0                            0.0000  -1.54000e+13              --- 
*     0+    0                      -4.59000e+12  -1.54000e+13           235.51%
*     0+    0                      -4.80000e+12  -1.54000e+13           220.83%
*     0+    0                      -5.79000e+12  -1.54000e+13           165.98%
*     0+    0                      -6.00000e+12  -1.54000e+13           156.67%
      0     0  -1.53900e+13   107  -6.00000e+12  -1.53900e+13     1748  156.50%
*     0+    0                      -1.53900e+13  -1.53900e+13             0.00%
      0     0  -1.53900e+13   166  -1.53900e+13      Cuts: 71     2047    0.00%
      0     0  -1.53900e+13   190  -1.53900e+13      Cuts: 75     2310    0.00%
*     0+    0                      -1.53900e+13  -1.53900e+13             0.00%
      0     2  -1.53900e+13   176  -1.53900e+13  -1.53900e+13     2310    0.00%
Elapsed time = 1.74 sec. (944.45 ticks, tree = 0.02 MB, solutions = 8)
*     7+   23                      -1.53900e+13  -1.53900e+13             0.00%
*    92+   40                      -1.53900e+13  -1.53900e+13             0.00%
    106    32  -1.53900e+13   223  -1.53900e+13  -1.53900e+13    32990    0.00%
    382    86  -1.53900e+13    92  -1.53900e+13  -1.53900e+13    59736    0.00%
    711   304  -1.53900e+13    79  -1.53900e+13  -1.53900e+13   140539    0.00%
   1080   452  -1.53900e+13    54  -1.53900e+13  -1.53900e+13   201893    0.00%
   1514   345  -1.53900e+13   125  -1.53900e+13  -1.53900e+13   154127    0.00%
   1987   418  -1.53900e+13   119  -1.53900e+13  -1.53900e+13   191400    0.00%
   2476   517  -1.53900e+13   225  -1.53900e+13  -1.53900e+13   218999    0.00%
   2941   878  -1.53900e+13   184  -1.53900e+13  -1.53900e+13   385699    0.00%
   3344  1691  -1.53900e+13   221  -1.53900e+13  -1.53900e+13   646467    0.00%
   5294  1505  -1.53900e+13   223  -1.53900e+13  -1.53900e+13   587576    0.00%
Elapsed time = 7.68 sec. (4053.15 ticks, tree = 16.08 MB, solutions = 19)
   7084  1802  -1.53900e+13   271  -1.53900e+13  -1.53900e+13   673291    0.00%
   7988  2177        cutoff        -1.53900e+13  -1.53900e+13   827856    0.00%
   8648  2972  -1.53900e+13   297  -1.53900e+13  -1.53900e+13  1070615    0.00%
   9430  3255  -1.53900e+13   146  -1.53900e+13  -1.53900e+13  1170082    0.00%
   9849  3585  -1.53900e+13   190  -1.53900e+13  -1.53900e+13  1316307    0.00%

Performing restart 1

Repeating presolve.
Tried aggregator 1 time.
MIP Presolve eliminated 17 rows and 14 columns.
MIP Presolve modified 1569 coefficients.
Reduced MIP has 3162 rows, 6897 columns, and 25022 nonzeros.
Reduced MIP has 6897 binaries, 0 generals, 0 SOSs, and 0 indicators.
Presolve time = 0.03 sec. (24.63 ticks)
Tried aggregator 2 times.
MIP Presolve eliminated 10 rows and 34 columns.
MIP Presolve modified 32 coefficients.
Aggregator did 10 substitutions.
Reduced MIP has 3142 rows, 6849 columns, and 24842 nonzeros.
Reduced MIP has 6849 binaries, 0 generals, 0 SOSs, and 0 indicators.
Presolve time = 0.05 sec. (47.76 ticks)
Represolve time = 0.20 sec. (124.33 ticks)
   9866     0  -1.53900e+13   281  -1.53900e+13      Cuts: 28  1647608    0.00%
   9866     0  -1.53900e+13   246  -1.53900e+13      Cuts: 17  1647672    0.00%
   9866     0  -1.53900e+13   301  -1.53900e+13  ZeroHalf: 20  1647742    0.00%
   9866     0  -1.53900e+13   299  -1.53900e+13      Cuts: 27  1647877    0.00%
   9866     0  -1.53900e+13   273  -1.53900e+13      Cuts: 20  1648015    0.00%
   9866     0  -1.53900e+13   289  -1.53900e+13      Cuts: 47  1648066    0.00%
   9866    12    infeasible        -1.53900e+13  -1.53900e+13  1672565    0.00%
  12194   101  -1.53900e+13    10  -1.53900e+13  -1.53900e+13  1711213    0.00%
  16216   159  -1.53900e+13   140  -1.53900e+13  -1.53900e+13  1728905    0.00%
  19285  1061        cutoff        -1.53900e+13  -1.53900e+13  2046920    0.00%
  22492  1197        cutoff        -1.53900e+13  -1.53900e+13  2026067    0.00%
Elapsed time = 23.15 sec. (15096.29 ticks, tree = 18.80 MB, solutions = 19)
  23688   654        cutoff        -1.53900e+13  -1.53900e+13  2079441    0.00%

GUB cover cuts applied:  2
Clique cuts applied:  6
Cover cuts applied:  398
Mixed integer rounding cuts applied:  3
Zero-half cuts applied:  53
Lift and project cuts applied:  3
Gomory fractional cuts applied:  14

Root node processing (before b&c):
  Real time             =    1.10 sec. (943.69 ticks)
Parallel b&c, 40 threads:
  Real time             =   22.09 sec. (15230.08 ticks)
  Sync time (average)   =    3.11 sec.
  Wait time (average)   =    0.07 sec.
                          ------------
Total (root+branch&cut) =   23.19 sec. (16173.77 ticks)

Solution pool: 19 solutions saved.

MIP - Integer optimal solution:  Objective = -1.5389997688e+13
Solution time =   23.33 sec.  Iterations = 2098260  Nodes = 23711
Deterministic time = 16173.80 ticks  (693.40 ticks/sec)

CPLEX> Solution 'p20' written to file 'ee.sol'.
CPLEX> 